p cnf 10 31
10 7 1 5 0
-8 -5 0
-6 -7 0
5 2 10 -9 0
8 -7 -4 -9 0
8 6 3 -10 -9 0
-8 7 9 0
10 -1 4 -8 -9 -3 7 -5 2 0
7 1 -3 -4 0
-2 6 4 0
6 10 7 -1 9 2 0
-10 3 -1 -5 0
-9 -4 -8 -5 0
-3 8 -9 7 0
-3 8 2 9 0
-4 3 0
-5 6 0
-8 -9 -10 -1 -5 -4 -3 -7 2 -6 0
-10 -3 2 -1 -7 4 -9 -8 0
3 -4 7 -5 9 10 -1 -6 2 -8 0
8 -1 -5 10 9 0
9 -10 -7 0
7 -3 -9 5 -1 0
3 -7 2 9 -8 -6 5 -4 0
-8 9 5 0
-6 7 -4 1 0
3 -1 -8 -5 2 10 -6 0
4 5 0
1 7 6 -9 5 2 -8 -3 4 -10 0
4 8 -10 5 -1 9 0
-2 5 -10 -7 -4 1 9 0
